cases/matpower/case30.m
ipopt
[info | PowerModels]: removing 3 cost terms from generator 4: Float64[]
[info | PowerModels]: removing 1 cost terms from generator 1: [52.1378, 0.0]
[info | PowerModels]: removing 3 cost terms from generator 5: Float64[]
[info | PowerModels]: removing 1 cost terms from generator 2: [113.51659999999998, 0.0]
[info | PowerModels]: removing 3 cost terms from generator 6: Float64[]
[info | PowerModels]: removing 3 cost terms from generator 3: Float64[]

******************************************************************************
This program contains Ipopt, a library for large-scale nonlinear optimization.
 Ipopt is released as open source code under the Eclipse Public License (EPL).
         For more information visit http://projects.coin-or.org/Ipopt
******************************************************************************

This is Ipopt version 3.13.2, running with linear solver mumps.
NOTE: Other linear solvers might be more efficient (see Ipopt documentation).

Number of nonzeros in equality constraint Jacobian...:      995
Number of nonzeros in inequality constraint Jacobian.:      328
Number of nonzeros in Lagrangian Hessian.............:     1806

Total number of variables............................:      232
                     variables with only lower bounds:        0
                variables with lower and upper bounds:      202
                     variables with only upper bounds:        0
Total number of equality constraints.................:      225
Total number of inequality constraints...............:      164
        inequality constraints with only lower bounds:       41
   inequality constraints with lower and upper bounds:        0
        inequality constraints with only upper bounds:      123

iter    objective    inf_pr   inf_du lg(mu)  ||d||  lg(rg) alpha_du alpha_pr  ls
   0  1.6565423e+00 9.42e-01 1.51e+01  -1.0 0.00e+00    -  0.00e+00 0.00e+00   0
   1  1.8318347e+02 1.89e-01 1.29e+02  -1.0 1.64e+00    -  6.21e-03 8.00e-01H  1
   2  1.8570516e+02 5.60e-02 3.78e+01  -1.0 1.42e+00    -  2.49e-02 7.03e-01h  1
   3  1.8616085e+02 5.37e-02 3.71e+01  -1.0 7.72e-01    -  9.77e-01 4.22e-02h  1
   4  2.0544231e+02 3.07e-04 8.49e-01  -1.0 3.63e-01    -  1.00e+00 1.00e+00h  1
   5  2.0521838e+02 3.66e-05 5.27e-02  -1.7 2.30e-02    -  1.00e+00 1.00e+00h  1
   6  2.0499484e+02 1.31e-04 7.48e-01  -2.5 7.66e-02    -  1.00e+00 8.27e-01f  1
   7  2.0498669e+02 7.00e-06 3.62e-02  -2.5 2.61e-02    -  1.00e+00 1.00e+00h  1
   8  2.0498819e+02 7.21e-08 6.52e-03  -2.5 1.41e-03    -  1.00e+00 1.00e+00h  1
   9  2.0496901e+02 7.10e-07 2.46e-03  -3.8 1.00e-02    -  1.00e+00 1.00e+00f  1
iter    objective    inf_pr   inf_du lg(mu)  ||d||  lg(rg) alpha_du alpha_pr  ls
  10  2.0496916e+02 2.30e-07 9.98e-03  -3.8 2.38e-03    -  1.00e+00 1.00e+00h  1
  11  2.0496930e+02 3.74e-09 5.20e-05  -3.8 2.37e-04    -  1.00e+00 1.00e+00h  1
  12  2.0496848e+02 3.22e-08 1.34e+00  -5.7 3.90e-04    -  1.00e+00 8.37e-01f  1
  13  2.0496836e+02 9.99e-08 3.05e-03  -5.7 5.78e-04    -  1.00e+00 1.00e+00f  1
  14  2.0496836e+02 2.07e-10 1.27e-04  -5.7 7.84e-05    -  1.00e+00 1.00e+00h  1
  15  2.0496836e+02 8.06e-15 9.58e-09  -5.7 2.74e-07    -  1.00e+00 1.00e+00h  1
  16  2.0496835e+02 4.51e-10 4.76e-03  -8.6 2.61e-05    -  9.97e-01 9.90e-01f  1
  17  2.0496835e+02 4.04e-14 1.45e-08  -8.6 9.93e-07    -  1.00e+00 1.00e+00f  1
  18  2.0496835e+02 9.09e-15 8.86e-12  -9.0 2.41e-08    -  1.00e+00 1.00e+00h  1

Number of Iterations....: 18

                                   (scaled)                 (unscaled)
Objective...............:   1.8056244707464680e+02    2.0496835079593848e+02
Dual infeasibility......:   8.8637271845077491e-12    1.0061801733128923e-11
Constraint violation....:   9.0873489289045040e-15    9.0873489289045040e-15
Complementarity.........:   9.0913122145057515e-10    1.0320148521291634e-09
Overall NLP error.......:   9.0913122145057515e-10    1.0320148521291634e-09


Number of objective function evaluations             = 20
Number of objective gradient evaluations             = 19
Number of equality constraint evaluations            = 20
Number of inequality constraint evaluations          = 20
Number of equality constraint Jacobian evaluations   = 19
Number of inequality constraint Jacobian evaluations = 19
Number of Lagrangian Hessian evaluations             = 18
Total CPU secs in IPOPT (w/o function evaluations)   =      1.278
Total CPU secs in NLP function evaluations           =      2.298

EXIT: Optimal Solution Found.
Time to Solution........:4.318092107772827
